unknown
(model
; cardinality of BoundSet is 3
(declare-sort BoundSet 0)
; rep: @uc_BoundSet_0
; rep: @uc_BoundSet_1
; rep: @uc_BoundSet_2
(declare-sort UnboundSet 0)
(define-fun IsInField ((BOUND_VARIABLE_382 BoundSet)) Bool true)
(define-fun HasTennisBall ((BOUND_VARIABLE_382 BoundSet)) Bool true)
(define-fun IsHis ((BOUND_VARIABLE_382 BoundSet)) Bool true)
(define-fun IsOutside ((BOUND_VARIABLE_382 BoundSet)) Bool false)
)
sat
(model
; cardinality of BoundSet is 1
(declare-sort BoundSet 0)
; rep: @uc_BoundSet_0
(declare-sort UnboundSet 0)
(define-fun IsInField ((BOUND_VARIABLE_421 BoundSet)) Bool true)
(define-fun HasTennisBall ((BOUND_VARIABLE_421 BoundSet)) Bool true)
(define-fun IsHis ((BOUND_VARIABLE_421 BoundSet)) Bool true)
(define-fun IsOutside ((BOUND_VARIABLE_421 BoundSet)) Bool false)
)
